c FILE: m250-10-3.dat
c
c AUTHOR: Marcelo de Souza
c
c DESCRIPTION: This is a random graph with 250 vertices.
c   Each of pair of vertices are made adjacent with probability p = 0.1.
c   The random seed used for its generation was 1574053649.
c
c May 7th, 2019
c
p edge 250 3086
e 1 8
e 1 10
e 1 18
e 1 97
e 1 112
e 1 131
e 1 146
e 1 149
e 1 160
e 1 169
e 1 171
e 1 188
e 1 189
e 1 203
e 1 204
e 1 214
e 1 217
e 1 222
e 1 225
e 1 233
e 1 249
e 2 9
e 2 10
e 2 12
e 2 36
e 2 46
e 2 54
e 2 56
e 2 59
e 2 89
e 2 90
e 2 107
e 2 110
e 2 117
e 2 131
e 2 136
e 2 144
e 2 147
e 2 155
e 2 173
e 2 178
e 2 193
e 2 224
e 3 31
e 3 42
e 3 46
e 3 51
e 3 79
e 3 80
e 3 85
e 3 108
e 3 110
e 3 119
e 3 131
e 3 143
e 3 150
e 3 157
e 3 161
e 3 164
e 3 172
e 3 173
e 3 191
e 3 196
e 3 221
e 3 224
e 3 228
e 3 233
e 3 236
e 3 241
e 4 18
e 4 22
e 4 47
e 4 54
e 4 55
e 4 64
e 4 69
e 4 73
e 4 83
e 4 88
e 4 89
e 4 95
e 4 97
e 4 109
e 4 111
e 4 115
e 4 136
e 4 168
e 4 171
e 4 202
e 4 236
e 4 239
e 4 241
e 5 16
e 5 37
e 5 39
e 5 49
e 5 57
e 5 59
e 5 60
e 5 84
e 5 128
e 5 136
e 5 174
e 5 179
e 5 189
e 5 206
e 5 230
e 5 238
e 5 241
e 5 245
e 6 16
e 6 36
e 6 44
e 6 48
e 6 49
e 6 56
e 6 75
e 6 101
e 6 103
e 6 106
e 6 113
e 6 124
e 6 144
e 6 155
e 6 169
e 6 207
e 6 213
e 6 224
e 6 228
e 7 15
e 7 18
e 7 38
e 7 39
e 7 48
e 7 86
e 7 97
e 7 107
e 7 108
e 7 115
e 7 118
e 7 125
e 7 127
e 7 154
e 7 157
e 7 160
e 7 169
e 7 181
e 7 184
e 7 194
e 7 197
e 7 216
e 7 230
e 7 231
e 7 241
e 7 243
e 7 245
e 7 247
e 8 10
e 8 20
e 8 23
e 8 27
e 8 31
e 8 34
e 8 36
e 8 51
e 8 70
e 8 77
e 8 79
e 8 100
e 8 112
e 8 126
e 8 128
e 8 130
e 8 218
e 8 222
e 8 231
e 8 233
e 8 239
e 8 244
e 9 11
e 9 12
e 9 15
e 9 18
e 9 28
e 9 33
e 9 35
e 9 65
e 9 70
e 9 79
e 9 96
e 9 103
e 9 109
e 9 110
e 9 113
e 9 161
e 9 184
e 9 196
e 9 207
e 9 223
e 9 224
e 9 239
e 10 11
e 10 16
e 10 22
e 10 28
e 10 38
e 10 52
e 10 75
e 10 85
e 10 87
e 10 106
e 10 107
e 10 127
e 10 155
e 10 176
e 10 210
e 10 213
e 10 214
e 10 244
e 11 18
e 11 62
e 11 65
e 11 75
e 11 91
e 11 97
e 11 101
e 11 102
e 11 115
e 11 130
e 11 138
e 11 142
e 11 184
e 11 211
e 11 214
e 11 235
e 11 237
e 12 39
e 12 47
e 12 54
e 12 62
e 12 64
e 12 80
e 12 85
e 12 90
e 12 91
e 12 94
e 12 107
e 12 108
e 12 141
e 12 143
e 12 163
e 12 171
e 12 179
e 12 182
e 12 198
e 12 199
e 12 205
e 12 217
e 12 219
e 12 220
e 12 221
e 12 227
e 12 238
e 12 239
e 12 243
e 13 18
e 13 32
e 13 42
e 13 52
e 13 66
e 13 135
e 13 191
e 13 205
e 13 220
e 13 236
e 14 43
e 14 59
e 14 70
e 14 71
e 14 92
e 14 124
e 14 130
e 14 152
e 14 163
e 14 174
e 14 186
e 14 192
e 14 229
e 14 234
e 14 247
e 15 16
e 15 20
e 15 37
e 15 67
e 15 73
e 15 78
e 15 120
e 15 122
e 15 128
e 15 132
e 15 142
e 15 150
e 15 156
e 15 165
e 15 167
e 15 175
e 15 190
e 15 216
e 15 217
e 15 227
e 15 232
e 15 234
e 15 235
e 15 236
e 15 242
e 15 244
e 16 21
e 16 36
e 16 37
e 16 39
e 16 44
e 16 55
e 16 62
e 16 69
e 16 71
e 16 76
e 16 81
e 16 87
e 16 97
e 16 104
e 16 107
e 16 111
e 16 127
e 16 128
e 16 136
e 16 148
e 16 154
e 16 159
e 16 185
e 16 188
e 16 202
e 16 223
e 16 233
e 16 235
e 17 18
e 17 23
e 17 41
e 17 53
e 17 54
e 17 61
e 17 67
e 17 75
e 17 78
e 17 91
e 17 94
e 17 103
e 17 108
e 17 129
e 17 130
e 17 133
e 17 140
e 17 141
e 17 144
e 17 164
e 17 194
e 17 202
e 17 214
e 17 218
e 17 220
e 17 227
e 17 233
e 17 244
e 17 246
e 18 19
e 18 27
e 18 43
e 18 44
e 18 63
e 18 120
e 18 123
e 18 128
e 18 136
e 18 139
e 18 150
e 18 154
e 18 161
e 18 183
e 18 188
e 18 211
e 18 222
e 18 243
e 19 21
e 19 29
e 19 43
e 19 45
e 19 88
e 19 111
e 19 115
e 19 119
e 19 129
e 19 141
e 19 149
e 19 159
e 19 164
e 19 169
e 19 174
e 19 186
e 19 196
e 19 222
e 19 227
e 19 228
e 19 236
e 19 237
e 19 239
e 19 242
e 19 243
e 20 21
e 20 30
e 20 41
e 20 50
e 20 58
e 20 61
e 20 64
e 20 78
e 20 82
e 20 100
e 20 101
e 20 124
e 20 136
e 20 156
e 20 166
e 20 175
e 20 185
e 20 206
e 20 216
e 20 220
e 20 225
e 20 233
e 20 243
e 20 249
e 21 44
e 21 51
e 21 58
e 21 61
e 21 64
e 21 75
e 21 115
e 21 119
e 21 126
e 21 136
e 21 152
e 21 155
e 21 156
e 21 157
e 21 163
e 21 171
e 21 173
e 21 183
e 21 198
e 21 204
e 21 220
e 21 226
e 21 244
e 22 24
e 22 27
e 22 32
e 22 40
e 22 41
e 22 46
e 22 63
e 22 66
e 22 67
e 22 69
e 22 79
e 22 88
e 22 92
e 22 100
e 22 114
e 22 115
e 22 131
e 22 134
e 22 162
e 22 168
e 22 171
e 22 181
e 22 189
e 22 195
e 22 222
e 22 223
e 22 237
e 22 246
e 23 29
e 23 31
e 23 32
e 23 35
e 23 42
e 23 57
e 23 61
e 23 80
e 23 87
e 23 92
e 23 111
e 23 132
e 23 136
e 23 137
e 23 149
e 23 160
e 23 188
e 23 191
e 23 196
e 24 42
e 24 110
e 24 130
e 24 138
e 24 146
e 24 171
e 24 189
e 24 201
e 24 214
e 24 231
e 24 236
e 25 26
e 25 37
e 25 45
e 25 54
e 25 62
e 25 63
e 25 71
e 25 96
e 25 127
e 25 138
e 25 140
e 25 155
e 25 161
e 25 162
e 25 183
e 25 189
e 25 193
e 25 194
e 25 197
e 25 206
e 25 225
e 26 46
e 26 49
e 26 59
e 26 69
e 26 87
e 26 89
e 26 93
e 26 97
e 26 130
e 26 135
e 26 147
e 26 154
e 26 155
e 26 158
e 26 164
e 26 167
e 26 203
e 26 207
e 26 232
e 26 234
e 26 245
e 27 35
e 27 52
e 27 57
e 27 64
e 27 75
e 27 80
e 27 85
e 27 87
e 27 104
e 27 142
e 27 161
e 27 162
e 27 171
e 27 189
e 27 190
e 27 202
e 27 209
e 27 219
e 27 238
e 27 250
e 28 36
e 28 37
e 28 48
e 28 49
e 28 51
e 28 55
e 28 91
e 28 93
e 28 102
e 28 106
e 28 109
e 28 197
e 28 207
e 28 209
e 28 224
e 28 238
e 29 32
e 29 42
e 29 75
e 29 83
e 29 85
e 29 98
e 29 106
e 29 113
e 29 121
e 29 123
e 29 126
e 29 131
e 29 144
e 29 147
e 29 155
e 29 159
e 29 178
e 29 183
e 29 193
e 29 222
e 29 229
e 30 35
e 30 36
e 30 47
e 30 51
e 30 56
e 30 58
e 30 66
e 30 76
e 30 78
e 30 104
e 30 123
e 30 128
e 30 134
e 30 141
e 30 151
e 30 205
e 30 216
e 30 226
e 30 229
e 30 242
e 30 247
e 31 54
e 31 66
e 31 85
e 31 112
e 31 113
e 31 127
e 31 150
e 31 170
e 31 200
e 31 204
e 31 222
e 31 224
e 31 239
e 31 247
e 32 42
e 32 49
e 32 51
e 32 72
e 32 74
e 32 100
e 32 105
e 32 110
e 32 111
e 32 123
e 32 129
e 32 152
e 32 154
e 32 155
e 32 157
e 32 161
e 32 176
e 32 178
e 32 179
e 32 184
e 32 188
e 32 204
e 32 216
e 32 227
e 32 231
e 32 238
e 32 249
e 33 34
e 33 39
e 33 43
e 33 55
e 33 59
e 33 76
e 33 85
e 33 89
e 33 95
e 33 102
e 33 130
e 33 133
e 33 176
e 33 180
e 33 182
e 33 191
e 33 192
e 33 193
e 33 218
e 33 241
e 33 247
e 34 38
e 34 54
e 34 79
e 34 89
e 34 131
e 34 133
e 34 137
e 34 138
e 34 140
e 34 156
e 34 167
e 34 171
e 34 172
e 34 180
e 34 183
e 34 192
e 34 193
e 34 194
e 34 215
e 34 223
e 34 233
e 34 239
e 35 39
e 35 48
e 35 50
e 35 68
e 35 82
e 35 84
e 35 93
e 35 117
e 35 128
e 35 133
e 35 144
e 35 153
e 35 154
e 35 163
e 35 168
e 35 173
e 35 174
e 35 192
e 35 205
e 35 206
e 35 227
e 35 234
e 35 239
e 36 46
e 36 52
e 36 56
e 36 60
e 36 62
e 36 67
e 36 69
e 36 74
e 36 75
e 36 96
e 36 98
e 36 102
e 36 108
e 36 115
e 36 117
e 36 120
e 36 124
e 36 128
e 36 131
e 36 137
e 36 142
e 36 156
e 36 191
e 36 196
e 36 202
e 36 203
e 36 208
e 36 213
e 36 218
e 36 229
e 36 235
e 36 239
e 37 44
e 37 60
e 37 77
e 37 81
e 37 83
e 37 92
e 37 94
e 37 95
e 37 96
e 37 97
e 37 119
e 37 127
e 37 132
e 37 137
e 37 149
e 37 203
e 37 219
e 37 249
e 38 39
e 38 48
e 38 50
e 38 70
e 38 71
e 38 74
e 38 86
e 38 91
e 38 103
e 38 108
e 38 127
e 38 132
e 38 140
e 38 142
e 38 150
e 38 185
e 38 195
e 38 204
e 38 205
e 38 208
e 38 246
e 38 248
e 38 250
e 39 68
e 39 69
e 39 85
e 39 100
e 39 123
e 39 138
e 39 148
e 39 157
e 39 162
e 39 176
e 39 178
e 39 181
e 39 195
e 39 199
e 39 207
e 39 214
e 39 224
e 39 225
e 39 233
e 40 44
e 40 53
e 40 56
e 40 58
e 40 59
e 40 65
e 40 85
e 40 105
e 40 106
e 40 110
e 40 151
e 40 174
e 40 181
e 40 194
e 40 198
e 40 200
e 40 203
e 40 212
e 40 215
e 40 217
e 40 220
e 40 228
e 40 235
e 40 246
e 40 248
e 41 43
e 41 52
e 41 90
e 41 111
e 41 114
e 41 121
e 41 130
e 41 133
e 41 135
e 41 144
e 41 146
e 41 157
e 41 160
e 41 178
e 41 203
e 41 205
e 41 208
e 41 228
e 42 45
e 42 50
e 42 63
e 42 71
e 42 77
e 42 88
e 42 89
e 42 94
e 42 103
e 42 113
e 42 120
e 42 134
e 42 137
e 42 149
e 42 156
e 42 166
e 42 179
e 42 180
e 42 182
e 42 185
e 42 207
e 42 211
e 42 214
e 42 225
e 42 230
e 42 238
e 42 239
e 42 240
e 42 241
e 42 250
e 43 47
e 43 48
e 43 70
e 43 73
e 43 75
e 43 93
e 43 99
e 43 105
e 43 108
e 43 122
e 43 140
e 43 151
e 43 165
e 43 168
e 43 173
e 43 183
e 43 189
e 43 213
e 43 229
e 43 230
e 43 240
e 43 241
e 44 50
e 44 53
e 44 59
e 44 72
e 44 81
e 44 97
e 44 99
e 44 124
e 44 132
e 44 135
e 44 155
e 44 157
e 44 169
e 44 201
e 44 212
e 44 223
e 44 228
e 44 241
e 44 247
e 45 46
e 45 56
e 45 64
e 45 69
e 45 88
e 45 91
e 45 92
e 45 108
e 45 112
e 45 146
e 45 147
e 45 177
e 45 178
e 45 186
e 45 235
e 45 239
e 46 48
e 46 50
e 46 63
e 46 65
e 46 68
e 46 91
e 46 107
e 46 148
e 46 163
e 46 164
e 46 176
e 46 188
e 46 213
e 46 219
e 46 246
e 46 248
e 47 50
e 47 79
e 47 81
e 47 85
e 47 118
e 47 121
e 47 149
e 47 152
e 47 164
e 47 166
e 47 191
e 47 192
e 47 212
e 47 228
e 47 232
e 47 233
e 47 238
e 47 241
e 47 245
e 48 75
e 48 82
e 48 83
e 48 88
e 48 94
e 48 104
e 48 120
e 48 126
e 48 127
e 48 129
e 48 134
e 48 136
e 48 137
e 48 144
e 48 147
e 48 152
e 48 162
e 48 168
e 48 178
e 48 181
e 48 182
e 48 188
e 48 190
e 48 191
e 48 199
e 48 201
e 48 207
e 48 231
e 48 233
e 48 235
e 48 241
e 48 245
e 49 65
e 49 78
e 49 80
e 49 84
e 49 94
e 49 123
e 49 125
e 49 133
e 49 143
e 49 151
e 49 160
e 49 165
e 49 171
e 49 174
e 49 189
e 49 245
e 49 249
e 49 250
e 50 55
e 50 87
e 50 88
e 50 89
e 50 92
e 50 97
e 50 104
e 50 136
e 50 140
e 50 152
e 50 156
e 50 169
e 50 178
e 50 179
e 50 201
e 50 220
e 50 236
e 51 60
e 51 63
e 51 67
e 51 70
e 51 125
e 51 141
e 51 143
e 51 152
e 51 172
e 51 175
e 51 184
e 51 188
e 51 190
e 51 208
e 51 210
e 51 211
e 51 222
e 51 228
e 51 248
e 52 54
e 52 64
e 52 72
e 52 96
e 52 98
e 52 108
e 52 119
e 52 145
e 52 158
e 52 168
e 52 179
e 52 181
e 52 208
e 52 219
e 52 225
e 52 230
e 52 245
e 53 58
e 53 60
e 53 68
e 53 77
e 53 83
e 53 89
e 53 100
e 53 107
e 53 110
e 53 112
e 53 124
e 53 127
e 53 130
e 53 142
e 53 144
e 53 145
e 53 147
e 53 166
e 53 233
e 53 235
e 53 242
e 54 62
e 54 64
e 54 65
e 54 81
e 54 97
e 54 99
e 54 127
e 54 132
e 54 133
e 54 175
e 54 186
e 54 192
e 54 225
e 54 227
e 54 229
e 55 57
e 55 82
e 55 97
e 55 109
e 55 117
e 55 120
e 55 125
e 55 142
e 55 147
e 55 151
e 55 159
e 55 191
e 55 203
e 55 210
e 55 211
e 55 219
e 55 222
e 55 223
e 55 224
e 56 66
e 56 72
e 56 73
e 56 79
e 56 88
e 56 92
e 56 99
e 56 109
e 56 116
e 56 140
e 56 141
e 56 142
e 56 146
e 56 160
e 56 161
e 56 164
e 56 182
e 56 200
e 56 222
e 56 232
e 56 237
e 57 64
e 57 69
e 57 71
e 57 78
e 57 100
e 57 103
e 57 115
e 57 147
e 57 171
e 57 174
e 57 176
e 57 183
e 57 185
e 57 195
e 57 233
e 57 236
e 57 242
e 57 248
e 58 87
e 58 98
e 58 115
e 58 119
e 58 139
e 58 143
e 58 151
e 58 177
e 58 187
e 58 209
e 58 217
e 58 219
e 58 223
e 58 226
e 58 233
e 58 237
e 58 240
e 59 76
e 59 78
e 59 82
e 59 112
e 59 113
e 59 115
e 59 127
e 59 133
e 59 139
e 59 154
e 59 158
e 59 173
e 59 190
e 59 200
e 59 215
e 59 216
e 59 224
e 59 230
e 59 234
e 59 235
e 59 239
e 59 242
e 59 244
e 60 61
e 60 67
e 60 75
e 60 81
e 60 83
e 60 89
e 60 92
e 60 103
e 60 142
e 60 145
e 60 153
e 60 155
e 60 161
e 60 164
e 60 184
e 60 219
e 60 226
e 60 232
e 60 233
e 60 250
e 61 63
e 61 65
e 61 69
e 61 70
e 61 80
e 61 83
e 61 84
e 61 109
e 61 119
e 61 122
e 61 138
e 61 141
e 61 189
e 61 194
e 61 197
e 61 205
e 61 230
e 61 235
e 61 247
e 62 67
e 62 75
e 62 102
e 62 109
e 62 134
e 62 145
e 62 173
e 62 214
e 62 216
e 62 225
e 62 234
e 63 69
e 63 78
e 63 90
e 63 101
e 63 102
e 63 124
e 63 137
e 63 140
e 63 141
e 63 153
e 63 175
e 63 201
e 63 210
e 63 220
e 63 223
e 63 225
e 63 226
e 63 239
e 63 241
e 64 86
e 64 97
e 64 108
e 64 120
e 64 126
e 64 129
e 64 131
e 64 143
e 64 161
e 64 190
e 64 227
e 64 231
e 64 243
e 64 247
e 64 249
e 65 75
e 65 84
e 65 100
e 65 118
e 65 131
e 65 140
e 65 142
e 65 151
e 65 167
e 65 171
e 65 181
e 65 186
e 65 187
e 65 194
e 65 218
e 65 226
e 65 234
e 65 236
e 66 68
e 66 71
e 66 79
e 66 80
e 66 93
e 66 98
e 66 102
e 66 105
e 66 119
e 66 122
e 66 126
e 66 132
e 66 141
e 66 143
e 66 149
e 66 159
e 66 160
e 66 176
e 66 185
e 66 197
e 66 217
e 66 227
e 66 234
e 66 238
e 66 242
e 66 249
e 67 75
e 67 77
e 67 79
e 67 84
e 67 94
e 67 96
e 67 104
e 67 147
e 67 148
e 67 164
e 67 168
e 67 170
e 67 191
e 67 202
e 67 205
e 67 207
e 67 211
e 67 212
e 67 244
e 67 246
e 67 247
e 68 69
e 68 84
e 68 119
e 68 120
e 68 128
e 68 151
e 68 160
e 68 178
e 68 179
e 68 188
e 68 193
e 68 195
e 68 199
e 68 203
e 68 205
e 68 208
e 68 214
e 68 224
e 68 228
e 68 235
e 68 240
e 68 244
e 69 75
e 69 82
e 69 109
e 69 114
e 69 132
e 69 136
e 69 138
e 69 147
e 69 164
e 69 165
e 69 168
e 69 180
e 69 186
e 69 194
e 69 204
e 69 206
e 69 215
e 69 219
e 69 225
e 69 242
e 69 248
e 70 86
e 70 94
e 70 111
e 70 115
e 70 126
e 70 133
e 70 163
e 70 196
e 70 206
e 70 217
e 70 242
e 71 73
e 71 77
e 71 80
e 71 104
e 71 105
e 71 107
e 71 112
e 71 114
e 71 125
e 71 144
e 71 162
e 71 176
e 71 188
e 71 198
e 71 204
e 71 216
e 71 221
e 71 238
e 71 245
e 72 76
e 72 90
e 72 105
e 72 111
e 72 119
e 72 128
e 72 129
e 72 130
e 72 137
e 72 141
e 72 155
e 72 165
e 72 166
e 72 178
e 72 180
e 72 183
e 72 184
e 72 202
e 72 205
e 72 222
e 72 228
e 72 235
e 73 74
e 73 98
e 73 117
e 73 121
e 73 130
e 73 138
e 73 150
e 73 157
e 73 171
e 73 193
e 73 195
e 73 211
e 73 227
e 73 236
e 74 91
e 74 96
e 74 101
e 74 105
e 74 107
e 74 114
e 74 131
e 74 145
e 74 152
e 74 176
e 74 181
e 74 195
e 74 196
e 74 200
e 74 204
e 74 214
e 74 222
e 74 225
e 74 233
e 74 236
e 74 237
e 75 98
e 75 104
e 75 106
e 75 107
e 75 113
e 75 125
e 75 133
e 75 147
e 75 149
e 75 156
e 75 163
e 75 172
e 75 179
e 75 191
e 75 200
e 75 205
e 75 223
e 75 239
e 76 97
e 76 122
e 76 168
e 76 181
e 76 188
e 76 205
e 76 216
e 76 218
e 76 219
e 76 222
e 76 225
e 76 236
e 76 241
e 76 247
e 77 80
e 77 95
e 77 97
e 77 118
e 77 125
e 77 130
e 77 142
e 77 145
e 77 147
e 77 156
e 77 159
e 77 161
e 77 167
e 77 171
e 77 175
e 77 180
e 77 185
e 77 188
e 77 193
e 77 197
e 77 202
e 77 203
e 77 205
e 77 206
e 77 210
e 77 218
e 77 222
e 77 229
e 77 230
e 77 240
e 77 249
e 78 80
e 78 90
e 78 96
e 78 102
e 78 104
e 78 109
e 78 127
e 78 133
e 78 134
e 78 154
e 78 166
e 78 169
e 78 171
e 78 176
e 78 198
e 78 235
e 78 242
e 79 85
e 79 86
e 79 122
e 79 123
e 79 125
e 79 134
e 79 137
e 79 144
e 79 157
e 79 167
e 79 168
e 79 172
e 79 186
e 79 188
e 79 193
e 79 222
e 79 244
e 80 85
e 80 89
e 80 91
e 80 98
e 80 110
e 80 125
e 80 127
e 80 134
e 80 137
e 80 142
e 80 157
e 80 158
e 80 163
e 80 166
e 80 170
e 80 177
e 80 178
e 80 188
e 80 208
e 80 213
e 80 223
e 80 227
e 80 231
e 80 235
e 80 239
e 81 98
e 81 102
e 81 110
e 81 114
e 81 119
e 81 120
e 81 146
e 81 148
e 81 185
e 81 186
e 81 192
e 81 196
e 81 206
e 81 209
e 81 210
e 81 213
e 81 225
e 81 227
e 81 228
e 81 232
e 81 244
e 81 246
e 82 98
e 82 117
e 82 122
e 82 146
e 82 164
e 82 173
e 82 179
e 82 198
e 82 205
e 82 211
e 83 84
e 83 95
e 83 107
e 83 116
e 83 119
e 83 125
e 83 127
e 83 158
e 83 165
e 83 170
e 83 180
e 83 192
e 83 203
e 83 204
e 83 216
e 83 220
e 83 236
e 83 238
e 83 248
e 84 116
e 84 122
e 84 140
e 84 143
e 84 152
e 84 157
e 84 168
e 84 181
e 84 199
e 84 212
e 84 216
e 84 234
e 84 246
e 84 247
e 85 87
e 85 92
e 85 93
e 85 100
e 85 101
e 85 102
e 85 109
e 85 123
e 85 133
e 85 135
e 85 138
e 85 159
e 85 174
e 85 180
e 85 181
e 85 184
e 85 185
e 85 186
e 85 188
e 85 204
e 85 214
e 85 217
e 85 221
e 85 231
e 86 90
e 86 94
e 86 103
e 86 117
e 86 121
e 86 143
e 86 148
e 86 154
e 86 167
e 86 183
e 86 185
e 86 196
e 86 208
e 86 213
e 86 222
e 86 238
e 86 245
e 87 88
e 87 105
e 87 112
e 87 141
e 87 151
e 87 169
e 87 194
e 87 196
e 87 204
e 87 214
e 87 215
e 87 220
e 87 227
e 88 90
e 88 93
e 88 117
e 88 136
e 88 137
e 88 140
e 88 141
e 88 147
e 88 152
e 88 154
e 88 156
e 88 157
e 88 161
e 88 184
e 88 194
e 88 196
e 88 201
e 88 220
e 88 238
e 89 95
e 89 101
e 89 102
e 89 106
e 89 108
e 89 114
e 89 130
e 89 132
e 89 158
e 89 164
e 89 172
e 89 177
e 89 178
e 89 180
e 89 181
e 89 193
e 89 206
e 89 209
e 89 218
e 89 223
e 89 225
e 90 102
e 90 107
e 90 111
e 90 113
e 90 126
e 90 130
e 90 149
e 90 156
e 90 167
e 90 168
e 90 171
e 90 177
e 90 178
e 90 183
e 90 187
e 90 202
e 90 209
e 90 220
e 91 95
e 91 99
e 91 115
e 91 117
e 91 127
e 91 134
e 91 140
e 91 146
e 91 155
e 91 158
e 91 161
e 91 165
e 91 169
e 91 182
e 91 200
e 91 218
e 91 232
e 91 242
e 91 244
e 91 246
e 92 93
e 92 122
e 92 138
e 92 139
e 92 141
e 92 143
e 92 144
e 92 163
e 92 167
e 92 173
e 92 186
e 92 194
e 92 199
e 92 201
e 92 206
e 92 214
e 92 220
e 92 227
e 92 245
e 93 95
e 93 97
e 93 101
e 93 111
e 93 120
e 93 132
e 93 133
e 93 138
e 93 153
e 93 156
e 93 159
e 93 177
e 93 218
e 93 249
e 94 103
e 94 132
e 94 143
e 94 158
e 94 160
e 94 161
e 94 165
e 94 171
e 94 174
e 94 179
e 94 195
e 94 196
e 94 199
e 94 202
e 94 212
e 94 225
e 94 233
e 94 235
e 94 241
e 95 105
e 95 108
e 95 118
e 95 125
e 95 128
e 95 161
e 95 183
e 95 191
e 95 204
e 95 218
e 95 219
e 95 220
e 95 224
e 95 227
e 95 245
e 95 249
e 96 105
e 96 106
e 96 117
e 96 149
e 96 172
e 96 198
e 96 199
e 96 203
e 96 211
e 96 215
e 96 216
e 96 223
e 96 239
e 96 245
e 97 104
e 97 108
e 97 112
e 97 113
e 97 119
e 97 144
e 97 148
e 97 149
e 97 162
e 97 173
e 97 175
e 97 180
e 97 181
e 97 183
e 97 190
e 97 191
e 97 209
e 97 212
e 97 220
e 97 228
e 97 236
e 97 244
e 97 245
e 97 250
e 98 103
e 98 135
e 98 139
e 98 156
e 98 157
e 98 162
e 98 174
e 98 177
e 98 179
e 98 195
e 98 204
e 98 209
e 98 212
e 98 222
e 98 242
e 99 102
e 99 104
e 99 136
e 99 143
e 99 146
e 99 147
e 99 155
e 99 162
e 99 189
e 99 209
e 99 212
e 99 215
e 99 229
e 99 233
e 100 138
e 100 152
e 100 154
e 100 158
e 100 177
e 100 178
e 100 182
e 100 184
e 100 193
e 100 197
e 100 203
e 100 214
e 100 218
e 100 228
e 100 231
e 100 241
e 101 102
e 101 104
e 101 114
e 101 129
e 101 138
e 101 150
e 101 175
e 101 205
e 101 212
e 101 227
e 101 229
e 101 239
e 101 241
e 101 245
e 101 246
e 102 111
e 102 141
e 102 152
e 102 163
e 102 184
e 102 188
e 102 195
e 102 198
e 102 213
e 102 214
e 102 224
e 103 106
e 103 120
e 103 128
e 103 137
e 103 139
e 103 155
e 103 178
e 103 183
e 103 194
e 103 211
e 103 216
e 103 222
e 103 228
e 103 232
e 103 250
e 104 108
e 104 124
e 104 136
e 104 146
e 104 150
e 104 154
e 104 158
e 104 164
e 104 168
e 104 187
e 104 189
e 104 191
e 104 201
e 104 203
e 104 245
e 105 123
e 105 140
e 105 145
e 105 196
e 105 201
e 105 202
e 105 222
e 105 230
e 105 231
e 106 121
e 106 134
e 106 149
e 106 161
e 106 172
e 106 174
e 106 202
e 106 238
e 106 245
e 107 119
e 107 158
e 107 178
e 107 190
e 107 227
e 107 234
e 107 245
e 107 250
e 108 112
e 108 118
e 108 142
e 108 160
e 108 161
e 108 163
e 108 174
e 108 178
e 108 182
e 108 201
e 108 203
e 108 222
e 108 225
e 108 246
e 108 249
e 109 116
e 109 133
e 109 156
e 109 169
e 109 174
e 109 193
e 109 208
e 109 223
e 109 224
e 109 233
e 109 239
e 109 241
e 110 134
e 110 141
e 110 160
e 110 171
e 110 174
e 110 199
e 110 214
e 110 223
e 110 240
e 110 247
e 111 117
e 111 119
e 111 121
e 111 131
e 111 141
e 111 151
e 111 155
e 111 159
e 111 173
e 111 174
e 111 184
e 111 208
e 111 216
e 111 233
e 111 243
e 111 244
e 111 249
e 112 121
e 112 138
e 112 141
e 112 145
e 112 161
e 112 201
e 112 220
e 112 222
e 112 236
e 112 240
e 112 244
e 112 245
e 112 250
e 113 123
e 113 142
e 113 144
e 113 145
e 113 152
e 113 166
e 113 174
e 113 175
e 113 183
e 113 188
e 113 191
e 113 194
e 113 200
e 113 209
e 113 211
e 113 226
e 113 235
e 113 247
e 113 249
e 114 115
e 114 123
e 114 129
e 114 130
e 114 135
e 114 143
e 114 145
e 114 148
e 114 152
e 114 155
e 114 172
e 114 182
e 115 120
e 115 132
e 115 139
e 115 146
e 115 164
e 115 167
e 115 187
e 115 195
e 115 198
e 115 201
e 115 204
e 115 215
e 115 218
e 115 219
e 115 222
e 115 241
e 115 249
e 116 122
e 116 141
e 116 144
e 116 148
e 116 160
e 116 161
e 116 169
e 116 174
e 116 204
e 116 209
e 116 211
e 116 225
e 116 235
e 116 240
e 116 242
e 117 133
e 117 146
e 117 152
e 117 156
e 117 159
e 117 166
e 117 170
e 117 179
e 117 183
e 117 204
e 117 227
e 117 238
e 117 243
e 117 250
e 118 120
e 118 140
e 118 147
e 118 152
e 118 160
e 118 162
e 118 167
e 118 168
e 118 192
e 118 227
e 118 232
e 118 235
e 118 249
e 119 152
e 119 156
e 119 178
e 119 190
e 119 194
e 119 201
e 119 211
e 119 219
e 119 222
e 119 229
e 119 230
e 119 231
e 119 232
e 119 233
e 119 248
e 120 137
e 120 155
e 120 161
e 120 174
e 120 178
e 120 213
e 120 217
e 120 243
e 120 249
e 121 134
e 121 136
e 121 163
e 121 167
e 121 169
e 121 188
e 121 193
e 121 198
e 121 199
e 121 201
e 121 203
e 121 208
e 121 239
e 121 240
e 121 242
e 121 246
e 122 124
e 122 126
e 122 130
e 122 171
e 122 174
e 122 181
e 122 193
e 122 194
e 122 205
e 122 210
e 122 225
e 122 228
e 122 234
e 122 241
e 122 248
e 123 130
e 123 170
e 123 189
e 123 191
e 123 192
e 123 207
e 123 216
e 123 219
e 124 166
e 124 177
e 124 238
e 124 239
e 124 247
e 125 127
e 125 128
e 125 134
e 125 149
e 125 152
e 125 157
e 125 159
e 125 214
e 125 232
e 126 134
e 126 157
e 126 162
e 126 174
e 126 175
e 126 203
e 126 220
e 126 235
e 126 241
e 127 132
e 127 144
e 127 148
e 127 150
e 127 159
e 127 162
e 127 164
e 127 177
e 127 190
e 127 191
e 127 192
e 127 219
e 127 223
e 127 230
e 127 232
e 127 235
e 127 236
e 127 238
e 127 239
e 127 242
e 127 244
e 127 249
e 128 133
e 128 154
e 128 161
e 128 176
e 128 177
e 128 181
e 128 182
e 128 188
e 128 197
e 128 198
e 128 204
e 128 209
e 128 224
e 128 232
e 128 243
e 129 130
e 129 134
e 129 141
e 129 190
e 129 208
e 129 209
e 129 219
e 129 235
e 129 238
e 129 246
e 130 136
e 130 137
e 130 151
e 130 167
e 130 170
e 130 173
e 130 185
e 130 212
e 130 221
e 130 248
e 131 155
e 131 163
e 131 169
e 131 170
e 131 177
e 131 180
e 131 189
e 131 202
e 131 210
e 131 213
e 131 240
e 132 139
e 132 142
e 132 152
e 132 160
e 132 168
e 132 181
e 132 189
e 132 192
e 132 197
e 132 205
e 132 206
e 132 208
e 132 212
e 132 215
e 132 218
e 132 239
e 132 241
e 132 246
e 133 134
e 133 136
e 133 148
e 133 152
e 133 154
e 133 162
e 133 176
e 133 188
e 133 197
e 133 207
e 133 208
e 133 223
e 133 224
e 133 228
e 133 231
e 133 234
e 133 238
e 133 242
e 133 248
e 134 135
e 134 148
e 134 149
e 134 173
e 134 175
e 134 187
e 134 192
e 134 198
e 134 201
e 134 215
e 134 224
e 134 243
e 135 139
e 135 155
e 135 157
e 135 163
e 135 164
e 135 168
e 135 176
e 135 190
e 135 205
e 135 206
e 135 212
e 135 216
e 135 222
e 135 224
e 135 234
e 135 237
e 135 238
e 135 240
e 136 155
e 136 160
e 136 174
e 136 177
e 136 185
e 136 186
e 136 187
e 136 190
e 136 192
e 136 197
e 136 203
e 136 217
e 136 224
e 136 229
e 136 244
e 137 141
e 137 160
e 137 161
e 137 162
e 137 178
e 137 189
e 137 190
e 137 201
e 137 207
e 137 210
e 137 215
e 137 229
e 137 249
e 138 142
e 138 145
e 138 148
e 138 162
e 138 179
e 138 183
e 138 189
e 138 193
e 138 212
e 138 226
e 138 230
e 138 236
e 139 140
e 139 143
e 139 149
e 139 152
e 139 174
e 139 185
e 139 198
e 139 209
e 139 217
e 139 223
e 139 234
e 140 148
e 140 159
e 140 167
e 140 196
e 140 205
e 140 231
e 140 234
e 140 248
e 141 143
e 141 147
e 141 174
e 141 186
e 141 207
e 141 213
e 141 221
e 141 236
e 141 243
e 142 159
e 142 184
e 142 186
e 142 203
e 142 212
e 142 239
e 143 150
e 143 159
e 143 173
e 143 183
e 143 185
e 143 190
e 143 191
e 143 216
e 143 228
e 143 233
e 143 245
e 143 248
e 144 152
e 144 188
e 144 204
e 144 206
e 144 211
e 144 222
e 144 223
e 144 230
e 144 233
e 144 240
e 145 157
e 145 171
e 145 178
e 145 189
e 145 220
e 145 243
e 145 244
e 146 159
e 146 173
e 146 178
e 146 182
e 146 185
e 146 190
e 146 239
e 146 241
e 146 245
e 147 158
e 147 171
e 147 172
e 147 174
e 147 180
e 147 185
e 147 186
e 147 225
e 147 234
e 148 150
e 148 170
e 148 174
e 148 185
e 148 210
e 148 217
e 148 219
e 148 232
e 149 150
e 149 154
e 149 165
e 149 177
e 149 187
e 149 204
e 149 215
e 149 226
e 149 229
e 149 241
e 149 242
e 149 243
e 150 166
e 150 169
e 150 181
e 150 196
e 150 214
e 150 218
e 150 220
e 150 234
e 151 164
e 151 170
e 151 179
e 151 192
e 151 198
e 151 202
e 151 207
e 151 224
e 151 230
e 151 233
e 151 248
e 152 157
e 152 172
e 152 182
e 152 200
e 152 212
e 152 214
e 152 223
e 152 229
e 152 232
e 152 241
e 152 246
e 152 250
e 153 187
e 153 200
e 153 211
e 153 229
e 154 159
e 154 160
e 154 172
e 154 182
e 154 183
e 154 185
e 154 192
e 154 197
e 154 201
e 154 235
e 154 236
e 154 237
e 154 248
e 155 168
e 155 170
e 155 171
e 155 173
e 155 185
e 155 186
e 155 191
e 155 222
e 155 231
e 155 241
e 156 159
e 156 169
e 156 176
e 156 187
e 156 191
e 156 201
e 156 204
e 156 212
e 156 216
e 156 234
e 156 238
e 156 244
e 156 249
e 157 162
e 157 166
e 157 168
e 157 170
e 157 175
e 157 194
e 157 198
e 157 207
e 157 218
e 157 219
e 157 220
e 157 233
e 157 235
e 158 170
e 158 191
e 158 206
e 158 213
e 158 214
e 158 215
e 158 217
e 158 233
e 159 163
e 159 169
e 159 203
e 159 215
e 159 216
e 159 221
e 160 168
e 160 176
e 160 178
e 160 185
e 160 192
e 160 204
e 160 209
e 160 212
e 160 215
e 160 221
e 160 223
e 160 236
e 160 244
e 160 248
e 161 175
e 161 185
e 161 196
e 161 201
e 161 203
e 161 220
e 161 221
e 161 225
e 161 236
e 161 242
e 162 165
e 162 168
e 162 169
e 162 176
e 162 177
e 162 221
e 162 222
e 162 230
e 162 232
e 162 239
e 163 172
e 163 186
e 163 195
e 163 208
e 163 214
e 163 220
e 163 223
e 163 237
e 164 170
e 164 175
e 164 193
e 164 194
e 164 198
e 164 204
e 164 212
e 164 222
e 164 224
e 164 243
e 165 174
e 165 190
e 165 193
e 165 221
e 165 229
e 166 178
e 166 203
e 166 207
e 166 211
e 166 218
e 166 231
e 166 240
e 167 175
e 167 179
e 167 181
e 167 233
e 167 236
e 168 175
e 168 201
e 168 207
e 168 242
e 168 246
e 168 250
e 169 187
e 169 189
e 169 193
e 169 204
e 169 212
e 169 214
e 169 223
e 169 227
e 169 233
e 169 250
e 170 181
e 170 186
e 170 217
e 170 227
e 170 233
e 170 243
e 171 173
e 171 182
e 171 214
e 171 227
e 171 234
e 171 235
e 172 198
e 172 201
e 172 205
e 172 206
e 172 213
e 172 225
e 172 226
e 172 232
e 172 234
e 172 246
e 172 247
e 172 248
e 173 182
e 173 183
e 173 204
e 173 229
e 173 231
e 174 185
e 174 204
e 174 208
e 174 215
e 174 217
e 174 228
e 174 237
e 174 239
e 175 180
e 175 181
e 175 193
e 175 198
e 175 221
e 175 233
e 175 248
e 176 204
e 176 223
e 176 241
e 177 186
e 177 201
e 177 221
e 177 235
e 177 242
e 178 182
e 178 183
e 178 197
e 178 198
e 178 230
e 178 232
e 178 241
e 178 247
e 178 250
e 179 196
e 179 200
e 179 213
e 179 230
e 179 244
e 179 245
e 180 205
e 180 217
e 180 230
e 180 238
e 180 243
e 181 194
e 181 248
e 182 189
e 182 197
e 182 204
e 182 210
e 182 221
e 182 227
e 182 231
e 182 239
e 182 249
e 183 199
e 183 200
e 183 207
e 183 214
e 183 216
e 183 219
e 183 222
e 183 227
e 184 202
e 184 220
e 184 232
e 184 248
e 185 203
e 185 204
e 185 218
e 185 221
e 185 237
e 186 188
e 186 192
e 186 200
e 186 219
e 186 221
e 186 222
e 186 249
e 187 192
e 187 195
e 187 216
e 187 223
e 187 235
e 187 244
e 187 246
e 188 210
e 188 213
e 188 214
e 188 224
e 188 236
e 189 193
e 189 202
e 189 242
e 189 243
e 189 248
e 190 222
e 191 222
e 191 224
e 191 228
e 191 243
e 191 249
e 192 193
e 192 234
e 192 239
e 192 243
e 192 247
e 193 194
e 193 204
e 193 225
e 193 235
e 193 238
e 193 242
e 194 197
e 194 210
e 194 224
e 194 235
e 194 246
e 194 248
e 194 249
e 194 250
e 195 215
e 195 221
e 195 246
e 196 204
e 196 215
e 196 233
e 196 240
e 196 241
e 196 250
e 197 202
e 197 203
e 197 208
e 197 209
e 197 212
e 197 226
e 197 228
e 197 233
e 197 237
e 198 208
e 198 212
e 198 225
e 198 228
e 198 234
e 198 240
e 198 246
e 199 207
e 199 213
e 199 223
e 199 229
e 199 234
e 200 210
e 200 218
e 200 227
e 200 243
e 201 202
e 201 207
e 201 211
e 201 219
e 201 222
e 201 223
e 201 229
e 201 230
e 201 248
e 201 249
e 202 210
e 202 218
e 202 222
e 202 227
e 202 229
e 202 237
e 202 242
e 202 249
e 203 219
e 203 231
e 204 210
e 204 231
e 204 240
e 204 250
e 205 212
e 205 215
e 205 217
e 205 233
e 206 215
e 206 230
e 206 236
e 206 240
e 206 241
e 206 244
e 206 250
e 207 208
e 207 220
e 207 221
e 207 228
e 207 233
e 207 247
e 208 210
e 208 228
e 208 241
e 209 210
e 209 220
e 209 227
e 209 231
e 210 212
e 210 218
e 210 220
e 210 232
e 210 243
e 210 245
e 211 213
e 211 227
e 211 235
e 211 248
e 211 250
e 212 227
e 213 216
e 213 224
e 213 246
e 214 229
e 214 233
e 214 234
e 215 223
e 215 224
e 215 241
e 215 243
e 215 245
e 216 225
e 216 228
e 217 243
e 218 219
e 218 231
e 218 237
e 218 240
e 218 244
e 218 249
e 219 225
e 219 226
e 219 229
e 219 241
e 220 224
e 220 226
e 221 227
e 221 228
e 221 237
e 221 239
e 221 242
e 221 247
e 221 248
e 221 249
e 222 234
e 222 235
e 222 247
e 223 224
e 223 225
e 223 226
e 223 242
e 223 246
e 224 233
e 224 243
e 224 249
e 224 250
e 225 238
e 226 230
e 227 229
e 228 238
e 228 248
e 229 240
e 229 242
e 233 241
e 235 244
e 235 248
e 236 249
e 239 245
e 240 243
e 240 246
e 241 248
e 242 243
e 242 250
e 243 244
e 243 245
e 245 248
e 245 249
e 249 250
